TOUR_SECTION
70
44
127
67
118
90
105
12
73
122
30
26
128
143
146
48
71
144
135
111
63
43
114
149
3
103
21
124
148
61
2
112
9
93
87
120
110
104
51
92
34
95
88
7
6
83
29
62
47
72
75
33
86
0
97
102
81
94
106
4
99
142
96
123
145
25
74
17
141
84
64
131
136
49
54
57
140
82
55
125
32
91
53
133
137
45
89
50
19
24
109
80
28
85
134
69
107
101
113
98
18
1
36
5
27
8
41
119
46
138
39
52
23
117
126
68
35
60
10
147
129
16
65
59
139
116
56
38
40
100
115
11
42
108
66
37
22
31
130
76
121
13
79
77
14
132
15
58
78
20
-1
EOF
